c CNF file corresponding to a (partial) station packing problem.
p cnf 4042 229
1 2 3 4 5 6 7 8 9 10 11 12 13 14 0
-1 -2 0
-1 -3 0
-1 -4 0
-1 -5 0
-1 -6 0
-1 -7 0
-1 -8 0
-1 -9 0
-1 -10 0
-1 -11 0
-1 -12 0
-1 -13 0
-1 -14 0
-2 -3 0
-2 -4 0
-2 -5 0
-2 -6 0
-2 -7 0
-2 -8 0
-2 -9 0
-2 -10 0
-2 -11 0
-2 -12 0
-2 -13 0
-2 -14 0
-3 -4 0
-3 -5 0
-3 -6 0
-3 -7 0
-3 -8 0
-3 -9 0
-3 -10 0
-3 -11 0
-3 -12 0
-3 -13 0
-3 -14 0
-4 -5 0
-4 -6 0
-4 -7 0
-4 -8 0
-4 -9 0
-4 -10 0
-4 -11 0
-4 -12 0
-4 -13 0
-4 -14 0
-5 -6 0
-5 -7 0
-5 -8 0
-5 -9 0
-5 -10 0
-5 -11 0
-5 -12 0
-5 -13 0
-5 -14 0
-6 -7 0
-6 -8 0
-6 -9 0
-6 -10 0
-6 -11 0
-6 -12 0
-6 -13 0
-6 -14 0
-7 -8 0
-7 -9 0
-7 -10 0
-7 -11 0
-7 -12 0
-7 -13 0
-7 -14 0
-8 -9 0
-8 -10 0
-8 -11 0
-8 -12 0
-8 -13 0
-8 -14 0
-9 -10 0
-9 -11 0
-9 -12 0
-9 -13 0
-9 -14 0
-10 -11 0
-10 -12 0
-10 -13 0
-10 -14 0
-11 -12 0
-11 -13 0
-11 -14 0
-12 -13 0
-12 -14 0
-13 -14 0
4026 4027 4028 4029 4030 4031 4032 4033 4034 4035 4036 4037 4038 4039 4040 4041 4042 0
-4026 -4027 0
-4026 -4028 0
-4026 -4029 0
-4026 -4030 0
-4026 -4031 0
-4026 -4032 0
-4026 -4033 0
-4026 -4034 0
-4026 -4035 0
-4026 -4036 0
-4026 -4037 0
-4026 -4038 0
-4026 -4039 0
-4026 -4040 0
-4026 -4041 0
-4026 -4042 0
-4027 -4028 0
-4027 -4029 0
-4027 -4030 0
-4027 -4031 0
-4027 -4032 0
-4027 -4033 0
-4027 -4034 0
-4027 -4035 0
-4027 -4036 0
-4027 -4037 0
-4027 -4038 0
-4027 -4039 0
-4027 -4040 0
-4027 -4041 0
-4027 -4042 0
-4028 -4029 0
-4028 -4030 0
-4028 -4031 0
-4028 -4032 0
-4028 -4033 0
-4028 -4034 0
-4028 -4035 0
-4028 -4036 0
-4028 -4037 0
-4028 -4038 0
-4028 -4039 0
-4028 -4040 0
-4028 -4041 0
-4028 -4042 0
-4029 -4030 0
-4029 -4031 0
-4029 -4032 0
-4029 -4033 0
-4029 -4034 0
-4029 -4035 0
-4029 -4036 0
-4029 -4037 0
-4029 -4038 0
-4029 -4039 0
-4029 -4040 0
-4029 -4041 0
-4029 -4042 0
-4030 -4031 0
-4030 -4032 0
-4030 -4033 0
-4030 -4034 0
-4030 -4035 0
-4030 -4036 0
-4030 -4037 0
-4030 -4038 0
-4030 -4039 0
-4030 -4040 0
-4030 -4041 0
-4030 -4042 0
-4031 -4032 0
-4031 -4033 0
-4031 -4034 0
-4031 -4035 0
-4031 -4036 0
-4031 -4037 0
-4031 -4038 0
-4031 -4039 0
-4031 -4040 0
-4031 -4041 0
-4031 -4042 0
-4032 -4033 0
-4032 -4034 0
-4032 -4035 0
-4032 -4036 0
-4032 -4037 0
-4032 -4038 0
-4032 -4039 0
-4032 -4040 0
-4032 -4041 0
-4032 -4042 0
-4033 -4034 0
-4033 -4035 0
-4033 -4036 0
-4033 -4037 0
-4033 -4038 0
-4033 -4039 0
-4033 -4040 0
-4033 -4041 0
-4033 -4042 0
-4034 -4035 0
-4034 -4036 0
-4034 -4037 0
-4034 -4038 0
-4034 -4039 0
-4034 -4040 0
-4034 -4041 0
-4034 -4042 0
-4035 -4036 0
-4035 -4037 0
-4035 -4038 0
-4035 -4039 0
-4035 -4040 0
-4035 -4041 0
-4035 -4042 0
-4036 -4037 0
-4036 -4038 0
-4036 -4039 0
-4036 -4040 0
-4036 -4041 0
-4036 -4042 0
-4037 -4038 0
-4037 -4039 0
-4037 -4040 0
-4037 -4041 0
-4037 -4042 0
-4038 -4039 0
-4038 -4040 0
-4038 -4041 0
-4038 -4042 0
-4039 -4040 0
-4039 -4041 0
-4039 -4042 0
-4040 -4041 0
-4040 -4042 0
-4041 -4042 0
